c FILE /home/rafael/Documents/HappySet/MIHS/inputs/happygen/output/graph_random_k3_p0.2_v100_20241127_083605.txt
c SOURCE This is a random graph formed for the happy graph colouring problem.
c DESCRIPTION It was generated using the problem generator of Rhyd Lewis
c
c GRAPH STATS
c Seed                             = 571648116
c Number of Nodes                  = 100
c Edge probability defined by user = 0.5
c Number of colours k              = 3
c Number of pre-assignments        = 20
c Actual density                   = 0.510909
c 
c The degrees of nodes 1 to 100, respectively, are as follows 
c [64, 64, 64, 61, 59, 58, 58, 58, 58, 57, 56, 56, 56, 56, 56, 55, 55, 55, 55, 55, 55, 55, 55, 55, 54, 54, 
c  54, 54, 53, 53, 53, 53, 53, 53, 53, 53, 53, 52, 52, 52, 52, 52, 52, 52, 51, 51, 51, 51, 51, 51, 51, 
c  51, 50, 50, 50, 50, 50, 50, 50, 50, 50, 49, 49, 49, 49, 49, 49, 49, 49, 48, 48, 47, 47, 47, 47, 46, 
c  46, 46, 46, 46, 46, 46, 45, 45, 45, 45, 45, 45, 45, 45, 45, 44, 43, 42, 42, 41, 40, 40, 39, 33] 
c  
p edge 100 2529 3
e 1 2
e 1 3
e 1 4
e 1 6
e 1 7
e 1 8
e 1 9
e 1 11
e 1 13
e 1 14
e 1 16
e 1 18
e 1 20
e 1 21
e 1 22
e 1 24
e 1 25
e 1 26
e 1 27
e 1 29
e 1 31
e 1 32
e 1 34
e 1 35
e 1 37
e 1 44
e 1 46
e 1 47
e 1 48
e 1 50
e 1 51
e 1 52
e 1 53
e 1 54
e 1 56
e 1 58
e 1 61
e 1 63
e 1 64
e 1 65
e 1 66
e 1 68
e 1 69
e 1 70
e 1 71
e 1 73
e 1 75
e 1 77
e 1 78
e 1 79
e 1 81
e 1 83
e 1 84
e 1 86
e 1 87
e 1 89
e 1 90
e 1 91
e 1 94
e 1 95
e 1 96
e 1 97
e 1 99
e 1 100
e 2 3
e 2 4
e 2 5
e 2 6
e 2 9
e 2 10
e 2 12
e 2 13
e 2 14
e 2 15
e 2 17
e 2 18
e 2 20
e 2 21
e 2 22
e 2 24
e 2 25
e 2 26
e 2 27
e 2 28
e 2 29
e 2 30
e 2 32
e 2 34
e 2 35
e 2 36
e 2 37
e 2 38
e 2 39
e 2 40
e 2 45
e 2 46
e 2 47
e 2 48
e 2 49
e 2 51
e 2 52
e 2 53
e 2 55
e 2 56
e 2 58
e 2 59
e 2 62
e 2 63
e 2 65
e 2 66
e 2 68
e 2 69
e 2 70
e 2 76
e 2 77
e 2 78
e 2 82
e 2 83
e 2 84
e 2 86
e 2 87
e 2 90
e 2 91
e 2 94
e 2 95
e 2 97
e 2 99
e 3 4
e 3 5
e 3 6
e 3 7
e 3 8
e 3 9
e 3 10
e 3 11
e 3 13
e 3 14
e 3 15
e 3 16
e 3 17
e 3 18
e 3 20
e 3 22
e 3 24
e 3 26
e 3 27
e 3 29
e 3 32
e 3 34
e 3 35
e 3 39
e 3 40
e 3 41
e 3 42
e 3 45
e 3 46
e 3 47
e 3 49
e 3 50
e 3 51
e 3 53
e 3 54
e 3 55
e 3 57
e 3 58
e 3 61
e 3 64
e 3 68
e 3 70
e 3 71
e 3 72
e 3 73
e 3 74
e 3 76
e 3 77
e 3 81
e 3 83
e 3 84
e 3 86
e 3 88
e 3 89
e 3 90
e 3 91
e 3 93
e 3 94
e 3 96
e 3 97
e 3 99
e 3 100
e 4 5
e 4 6
e 4 7
e 4 8
e 4 9
e 4 10
e 4 14
e 4 15
e 4 16
e 4 17
e 4 18
e 4 20
e 4 21
e 4 23
e 4 25
e 4 27
e 4 28
e 4 29
e 4 30
e 4 31
e 4 33
e 4 34
e 4 35
e 4 36
e 4 37
e 4 38
e 4 39
e 4 40
e 4 41
e 4 43
e 4 44
e 4 47
e 4 51
e 4 52
e 4 53
e 4 56
e 4 58
e 4 59
e 4 60
e 4 61
e 4 62
e 4 63
e 4 65
e 4 66
e 4 67
e 4 68
e 4 70
e 4 72
e 4 75
e 4 77
e 4 78
e 4 80
e 4 85
e 4 86
e 4 88
e 4 91
e 4 97
e 4 100
e 5 9
e 5 11
e 5 13
e 5 14
e 5 15
e 5 18
e 5 20
e 5 21
e 5 24
e 5 26
e 5 28
e 5 29
e 5 32
e 5 33
e 5 35
e 5 37
e 5 38
e 5 39
e 5 40
e 5 42
e 5 43
e 5 44
e 5 45
e 5 47
e 5 50
e 5 52
e 5 53
e 5 56
e 5 57
e 5 58
e 5 59
e 5 61
e 5 62
e 5 63
e 5 65
e 5 67
e 5 68
e 5 69
e 5 70
e 5 71
e 5 72
e 5 73
e 5 74
e 5 75
e 5 78
e 5 79
e 5 80
e 5 82
e 5 83
e 5 84
e 5 85
e 5 86
e 5 87
e 5 92
e 5 97
e 5 100
e 6 7
e 6 8
e 6 9
e 6 10
e 6 12
e 6 13
e 6 16
e 6 17
e 6 18
e 6 19
e 6 20
e 6 22
e 6 24
e 6 27
e 6 30
e 6 31
e 6 32
e 6 33
e 6 39
e 6 40
e 6 41
e 6 42
e 6 44
e 6 47
e 6 49
e 6 51
e 6 54
e 6 55
e 6 56
e 6 57
e 6 58
e 6 61
e 6 64
e 6 65
e 6 67
e 6 68
e 6 70
e 6 71
e 6 72
e 6 76
e 6 77
e 6 78
e 6 80
e 6 81
e 6 82
e 6 83
e 6 84
e 6 86
e 6 89
e 6 91
e 6 94
e 6 96
e 6 98
e 6 99
e 7 8
e 7 9
e 7 10
e 7 11
e 7 12
e 7 13
e 7 15
e 7 18
e 7 19
e 7 20
e 7 21
e 7 22
e 7 23
e 7 26
e 7 27
e 7 29
e 7 30
e 7 32
e 7 33
e 7 34
e 7 36
e 7 37
e 7 38
e 7 40
e 7 41
e 7 44
e 7 45
e 7 46
e 7 47
e 7 48
e 7 49
e 7 51
e 7 54
e 7 55
e 7 56
e 7 57
e 7 59
e 7 62
e 7 63
e 7 65
e 7 66
e 7 67
e 7 69
e 7 75
e 7 77
e 7 80
e 7 81
e 7 84
e 7 88
e 7 91
e 7 95
e 7 96
e 7 99
e 7 100
e 8 10
e 8 11
e 8 13
e 8 15
e 8 18
e 8 21
e 8 22
e 8 23
e 8 24
e 8 25
e 8 26
e 8 27
e 8 31
e 8 32
e 8 33
e 8 34
e 8 35
e 8 36
e 8 37
e 8 38
e 8 40
e 8 41
e 8 43
e 8 44
e 8 46
e 8 51
e 8 52
e 8 53
e 8 54
e 8 56
e 8 58
e 8 60
e 8 61
e 8 63
e 8 66
e 8 68
e 8 69
e 8 71
e 8 75
e 8 76
e 8 77
e 8 79
e 8 80
e 8 81
e 8 84
e 8 87
e 8 88
e 8 90
e 8 91
e 8 92
e 8 93
e 8 98
e 8 99
e 9 13
e 9 14
e 9 16
e 9 17
e 9 19
e 9 20
e 9 23
e 9 25
e 9 26
e 9 28
e 9 29
e 9 31
e 9 33
e 9 34
e 9 37
e 9 38
e 9 40
e 9 41
e 9 42
e 9 46
e 9 48
e 9 49
e 9 50
e 9 51
e 9 53
e 9 54
e 9 56
e 9 57
e 9 61
e 9 67
e 9 71
e 9 73
e 9 74
e 9 77
e 9 78
e 9 79
e 9 80
e 9 81
e 9 82
e 9 83
e 9 84
e 9 85
e 9 86
e 9 87
e 9 90
e 9 91
e 9 92
e 9 93
e 9 94
e 9 95
e 9 99
e 10 11
e 10 12
e 10 13
e 10 14
e 10 15
e 10 19
e 10 21
e 10 22
e 10 23
e 10 24
e 10 25
e 10 28
e 10 30
e 10 31
e 10 32
e 10 35
e 10 38
e 10 40
e 10 41
e 10 42
e 10 43
e 10 44
e 10 45
e 10 46
e 10 47
e 10 50
e 10 52
e 10 54
e 10 55
e 10 59
e 10 60
e 10 65
e 10 66
e 10 67
e 10 69
e 10 70
e 10 72
e 10 73
e 10 79
e 10 80
e 10 81
e 10 82
e 10 87
e 10 88
e 10 89
e 10 90
e 10 93
e 10 94
e 10 95
e 10 98
e 10 99
e 11 12
e 11 13
e 11 16
e 11 17
e 11 19
e 11 20
e 11 22
e 11 23
e 11 24
e 11 26
e 11 27
e 11 28
e 11 31
e 11 32
e 11 34
e 11 35
e 11 37
e 11 38
e 11 39
e 11 41
e 11 46
e 11 48
e 11 49
e 11 50
e 11 51
e 11 53
e 11 56
e 11 57
e 11 58
e 11 59
e 11 60
e 11 63
e 11 64
e 11 65
e 11 67
e 11 69
e 11 76
e 11 78
e 11 79
e 11 80
e 11 83
e 11 87
e 11 88
e 11 89
e 11 91
e 11 92
e 11 96
e 11 97
e 11 99
e 11 100
e 12 13
e 12 16
e 12 19
e 12 20
e 12 21
e 12 22
e 12 23
e 12 24
e 12 26
e 12 28
e 12 29
e 12 31
e 12 32
e 12 33
e 12 34
e 12 36
e 12 37
e 12 38
e 12 39
e 12 42
e 12 44
e 12 45
e 12 47
e 12 48
e 12 49
e 12 50
e 12 51
e 12 52
e 12 54
e 12 56
e 12 59
e 12 61
e 12 62
e 12 63
e 12 64
e 12 65
e 12 67
e 12 70
e 12 71
e 12 72
e 12 73
e 12 74
e 12 75
e 12 78
e 12 81
e 12 82
e 12 88
e 12 92
e 12 93
e 12 96
e 12 99
e 13 14
e 13 16
e 13 18
e 13 20
e 13 23
e 13 25
e 13 26
e 13 29
e 13 30
e 13 31
e 13 36
e 13 37
e 13 40
e 13 42
e 13 45
e 13 46
e 13 47
e 13 50
e 13 53
e 13 54
e 13 56
e 13 57
e 13 59
e 13 60
e 13 61
e 13 62
e 13 63
e 13 64
e 13 65
e 13 66
e 13 67
e 13 69
e 13 72
e 13 75
e 13 78
e 13 85
e 13 87
e 13 88
e 13 89
e 13 90
e 13 91
e 13 92
e 13 94
e 13 96
e 13 98
e 14 15
e 14 16
e 14 21
e 14 23
e 14 24
e 14 25
e 14 26
e 14 28
e 14 29
e 14 30
e 14 31
e 14 32
e 14 33
e 14 34
e 14 35
e 14 36
e 14 38
e 14 40
e 14 41
e 14 44
e 14 45
e 14 46
e 14 47
e 14 48
e 14 49
e 14 50
e 14 51
e 14 52
e 14 53
e 14 60
e 14 62
e 14 65
e 14 67
e 14 69
e 14 72
e 14 76
e 14 77
e 14 78
e 14 79
e 14 80
e 14 81
e 14 88
e 14 90
e 14 91
e 14 93
e 14 96
e 14 97
e 14 100
e 15 20
e 15 21
e 15 23
e 15 24
e 15 25
e 15 26
e 15 27
e 15 29
e 15 30
e 15 35
e 15 36
e 15 39
e 15 40
e 15 42
e 15 45
e 15 46
e 15 47
e 15 49
e 15 50
e 15 51
e 15 52
e 15 54
e 15 55
e 15 56
e 15 59
e 15 60
e 15 62
e 15 63
e 15 65
e 15 68
e 15 69
e 15 71
e 15 72
e 15 73
e 15 74
e 15 76
e 15 77
e 15 78
e 15 81
e 15 82
e 15 84
e 15 86
e 15 88
e 15 91
e 15 92
e 15 93
e 15 94
e 15 98
e 16 17
e 16 18
e 16 21
e 16 22
e 16 23
e 16 24
e 16 25
e 16 26
e 16 27
e 16 29
e 16 32
e 16 35
e 16 36
e 16 37
e 16 38
e 16 41
e 16 42
e 16 45
e 16 46
e 16 48
e 16 50
e 16 55
e 16 56
e 16 57
e 16 58
e 16 64
e 16 65
e 16 66
e 16 69
e 16 71
e 16 72
e 16 73
e 16 75
e 16 79
e 16 81
e 16 82
e 16 84
e 16 85
e 16 86
e 16 87
e 16 88
e 16 91
e 16 94
e 16 95
e 16 98
e 16 99
e 17 18
e 17 19
e 17 20
e 17 22
e 17 23
e 17 25
e 17 26
e 17 27
e 17 30
e 17 31
e 17 32
e 17 34
e 17 35
e 17 36
e 17 38
e 17 40
e 17 42
e 17 44
e 17 49
e 17 53
e 17 54
e 17 57
e 17 58
e 17 61
e 17 62
e 17 63
e 17 66
e 17 67
e 17 69
e 17 70
e 17 72
e 17 73
e 17 74
e 17 76
e 17 80
e 17 81
e 17 82
e 17 83
e 17 86
e 17 88
e 17 89
e 17 92
e 17 93
e 17 94
e 17 95
e 17 97
e 17 98
e 17 100
e 18 19
e 18 22
e 18 23
e 18 24
e 18 26
e 18 28
e 18 29
e 18 30
e 18 33
e 18 35
e 18 36
e 18 38
e 18 40
e 18 43
e 18 44
e 18 45
e 18 47
e 18 48
e 18 49
e 18 50
e 18 51
e 18 52
e 18 54
e 18 55
e 18 57
e 18 58
e 18 64
e 18 65
e 18 66
e 18 67
e 18 69
e 18 73
e 18 75
e 18 76
e 18 81
e 18 84
e 18 85
e 18 86
e 18 89
e 18 90
e 18 91
e 18 93
e 18 96
e 18 98
e 19 20
e 19 21
e 19 22
e 19 23
e 19 24
e 19 25
e 19 28
e 19 32
e 19 33
e 19 35
e 19 36
e 19 38
e 19 39
e 19 41
e 19 42
e 19 43
e 19 45
e 19 46
e 19 47
e 19 48
e 19 49
e 19 51
e 19 53
e 19 56
e 19 57
e 19 58
e 19 59
e 19 62
e 19 64
e 19 65
e 19 67
e 19 68
e 19 69
e 19 73
e 19 74
e 19 75
e 19 76
e 19 80
e 19 82
e 19 85
e 19 86
e 19 88
e 19 90
e 19 91
e 19 93
e 19 95
e 19 97
e 20 22
e 20 23
e 20 25
e 20 26
e 20 27
e 20 28
e 20 29
e 20 31
e 20 32
e 20 33
e 20 39
e 20 40
e 20 41
e 20 42
e 20 45
e 20 47
e 20 50
e 20 54
e 20 59
e 20 64
e 20 66
e 20 67
e 20 69
e 20 70
e 20 71
e 20 74
e 20 75
e 20 76
e 20 77
e 20 80
e 20 81
e 20 82
e 20 84
e 20 88
e 20 90
e 20 91
e 20 94
e 20 96
e 20 98
e 20 99
e 20 100
e 21 25
e 21 26
e 21 27
e 21 28
e 21 30
e 21 33
e 21 35
e 21 37
e 21 41
e 21 42
e 21 44
e 21 46
e 21 49
e 21 50
e 21 51
e 21 52
e 21 54
e 21 55
e 21 56
e 21 57
e 21 58
e 21 59
e 21 60
e 21 63
e 21 65
e 21 67
e 21 68
e 21 69
e 21 71
e 21 72
e 21 73
e 21 74
e 21 75
e 21 77
e 21 79
e 21 85
e 21 88
e 21 90
e 21 91
e 21 96
e 21 97
e 21 98
e 21 99
e 22 24
e 22 25
e 22 26
e 22 27
e 22 28
e 22 29
e 22 30
e 22 32
e 22 36
e 22 38
e 22 39
e 22 43
e 22 44
e 22 45
e 22 46
e 22 47
e 22 48
e 22 50
e 22 51
e 22 56
e 22 57
e 22 58
e 22 60
e 22 61
e 22 62
e 22 63
e 22 68
e 22 70
e 22 75
e 22 76
e 22 78
e 22 82
e 22 83
e 22 87
e 22 88
e 22 90
e 22 91
e 22 93
e 22 95
e 22 96
e 22 100
e 23 24
e 23 25
e 23 30
e 23 34
e 23 36
e 23 37
e 23 39
e 23 41
e 23 42
e 23 43
e 23 47
e 23 49
e 23 51
e 23 52
e 23 53
e 23 55
e 23 56
e 23 59
e 23 64
e 23 65
e 23 66
e 23 67
e 23 69
e 23 70
e 23 73
e 23 74
e 23 75
e 23 77
e 23 78
e 23 79
e 23 81
e 23 84
e 23 85
e 23 87
e 23 91
e 23 92
e 23 94
e 23 95
e 23 96
e 23 99
e 24 25
e 24 26
e 24 27
e 24 28
e 24 30
e 24 33
e 24 34
e 24 35
e 24 36
e 24 38
e 24 39
e 24 40
e 24 43
e 24 44
e 24 46
e 24 49
e 24 51
e 24 53
e 24 55
e 24 60
e 24 61
e 24 63
e 24 65
e 24 66
e 24 67
e 24 68
e 24 70
e 24 72
e 24 75
e 24 76
e 24 79
e 24 80
e 24 82
e 24 83
e 24 85
e 24 87
e 24 90
e 24 93
e 24 94
e 25 26
e 25 30
e 25 35
e 25 37
e 25 39
e 25 44
e 25 45
e 25 47
e 25 48
e 25 50
e 25 52
e 25 53
e 25 54
e 25 57
e 25 58
e 25 59
e 25 60
e 25 63
e 25 64
e 25 68
e 25 70
e 25 71
e 25 72
e 25 73
e 25 76
e 25 78
e 25 79
e 25 83
e 25 84
e 25 86
e 25 88
e 25 89
e 25 90
e 25 92
e 25 96
e 25 98
e 25 99
e 26 28
e 26 31
e 26 35
e 26 36
e 26 37
e 26 38
e 26 39
e 26 40
e 26 43
e 26 44
e 26 45
e 26 47
e 26 48
e 26 49
e 26 50
e 26 57
e 26 60
e 26 63
e 26 67
e 26 69
e 26 73
e 26 74
e 26 76
e 26 79
e 26 81
e 26 83
e 26 84
e 26 88
e 26 91
e 26 95
e 26 96
e 26 97
e 26 99
e 26 100
e 27 29
e 27 30
e 27 31
e 27 32
e 27 35
e 27 37
e 27 39
e 27 41
e 27 45
e 27 46
e 27 47
e 27 48
e 27 53
e 27 54
e 27 55
e 27 56
e 27 57
e 27 58
e 27 59
e 27 60
e 27 61
e 27 64
e 27 65
e 27 67
e 27 69
e 27 70
e 27 72
e 27 73
e 27 77
e 27 79
e 27 80
e 27 81
e 27 83
e 27 86
e 27 89
e 27 90
e 27 91
e 27 93
e 27 94
e 28 30
e 28 31
e 28 32
e 28 34
e 28 36
e 28 38
e 28 42
e 28 43
e 28 44
e 28 45
e 28 47
e 28 48
e 28 49
e 28 50
e 28 51
e 28 52
e 28 55
e 28 56
e 28 57
e 28 60
e 28 61
e 28 63
e 28 66
e 28 68
e 28 69
e 28 71
e 28 72
e 28 74
e 28 77
e 28 78
e 28 82
e 28 84
e 28 85
e 28 89
e 28 92
e 28 93
e 28 94
e 28 99
e 28 100
e 29 31
e 29 33
e 29 34
e 29 36
e 29 38
e 29 39
e 29 40
e 29 42
e 29 46
e 29 47
e 29 48
e 29 49
e 29 52
e 29 53
e 29 54
e 29 57
e 29 60
e 29 62
e 29 64
e 29 67
e 29 68
e 29 69
e 29 73
e 29 76
e 29 78
e 29 79
e 29 80
e 29 82
e 29 84
e 29 86
e 29 88
e 29 90
e 29 92
e 29 93
e 29 94
e 29 97
e 29 98
e 30 32
e 30 34
e 30 35
e 30 37
e 30 38
e 30 40
e 30 41
e 30 43
e 30 44
e 30 45
e 30 48
e 30 49
e 30 51
e 30 52
e 30 53
e 30 54
e 30 56
e 30 62
e 30 64
e 30 66
e 30 68
e 30 69
e 30 70
e 30 72
e 30 73
e 30 75
e 30 77
e 30 83
e 30 84
e 30 85
e 30 86
e 30 89
e 30 96
e 30 97
e 30 98
e 30 99
e 31 33
e 31 34
e 31 36
e 31 38
e 31 42
e 31 43
e 31 44
e 31 45
e 31 46
e 31 47
e 31 48
e 31 49
e 31 50
e 31 51
e 31 54
e 31 56
e 31 58
e 31 59
e 31 60
e 31 61
e 31 66
e 31 68
e 31 70
e 31 71
e 31 72
e 31 73
e 31 74
e 31 75
e 31 78
e 31 79
e 31 80
e 31 81
e 31 83
e 31 84
e 31 87
e 31 90
e 31 97
e 32 33
e 32 34
e 32 36
e 32 37
e 32 38
e 32 39
e 32 40
e 32 41
e 32 44
e 32 45
e 32 46
e 32 48
e 32 49
e 32 53
e 32 55
e 32 56
e 32 58
e 32 59
e 32 61
e 32 63
e 32 64
e 32 66
e 32 67
e 32 68
e 32 72
e 32 75
e 32 82
e 32 83
e 32 84
e 32 87
e 32 88
e 32 90
e 32 92
e 32 94
e 33 38
e 33 40
e 33 42
e 33 43
e 33 44
e 33 47
e 33 48
e 33 49
e 33 51
e 33 52
e 33 53
e 33 54
e 33 60
e 33 62
e 33 63
e 33 64
e 33 65
e 33 66
e 33 67
e 33 68
e 33 69
e 33 71
e 33 73
e 33 74
e 33 75
e 33 76
e 33 80
e 33 82
e 33 85
e 33 86
e 33 90
e 33 91
e 33 93
e 33 94
e 33 95
e 33 97
e 33 99
e 34 36
e 34 37
e 34 40
e 34 41
e 34 45
e 34 47
e 34 48
e 34 49
e 34 51
e 34 52
e 34 53
e 34 55
e 34 56
e 34 58
e 34 59
e 34 61
e 34 64
e 34 65
e 34 66
e 34 67
e 34 68
e 34 71
e 34 72
e 34 75
e 34 77
e 34 78
e 34 79
e 34 82
e 34 83
e 34 84
e 34 87
e 34 89
e 34 94
e 34 96
e 34 99
e 35 36
e 35 39
e 35 40
e 35 42
e 35 46
e 35 47
e 35 49
e 35 50
e 35 52
e 35 54
e 35 55
e 35 56
e 35 59
e 35 60
e 35 61
e 35 62
e 35 66
e 35 70
e 35 71
e 35 76
e 35 77
e 35 78
e 35 81
e 35 82
e 35 83
e 35 84
e 35 86
e 35 92
e 35 94
e 35 95
e 35 96
e 35 97
e 35 98
e 36 42
e 36 43
e 36 44
e 36 45
e 36 46
e 36 47
e 36 48
e 36 49
e 36 51
e 36 52
e 36 55
e 36 56
e 36 62
e 36 63
e 36 66
e 36 69
e 36 70
e 36 71
e 36 72
e 36 74
e 36 77
e 36 80
e 36 82
e 36 85
e 36 87
e 36 88
e 36 91
e 36 92
e 36 93
e 36 95
e 36 96
e 37 38
e 37 39
e 37 42
e 37 43
e 37 45
e 37 46
e 37 47
e 37 50
e 37 53
e 37 54
e 37 55
e 37 56
e 37 57
e 37 59
e 37 60
e 37 61
e 37 62
e 37 65
e 37 66
e 37 69
e 37 71
e 37 74
e 37 76
e 37 78
e 37 80
e 37 81
e 37 82
e 37 84
e 37 85
e 37 92
e 37 94
e 37 97
e 37 98
e 37 100
e 38 41
e 38 43
e 38 45
e 38 46
e 38 47
e 38 48
e 38 49
e 38 51
e 38 52
e 38 53
e 38 54
e 38 57
e 38 58
e 38 59
e 38 61
e 38 63
e 38 64
e 38 65
e 38 70
e 38 71
e 38 75
e 38 84
e 38 87
e 38 89
e 38 93
e 38 94
e 38 97
e 38 99
e 39 40
e 39 41
e 39 43
e 39 44
e 39 45
e 39 48
e 39 50
e 39 51
e 39 56
e 39 57
e 39 61
e 39 62
e 39 63
e 39 68
e 39 72
e 39 74
e 39 76
e 39 78
e 39 79
e 39 80
e 39 82
e 39 83
e 39 85
e 39 86
e 39 87
e 39 90
e 39 92
e 39 93
e 39 94
e 39 95
e 39 96
e 39 97
e 40 42
e 40 43
e 40 44
e 40 46
e 40 49
e 40 53
e 40 54
e 40 55
e 40 58
e 40 59
e 40 60
e 40 62
e 40 65
e 40 66
e 40 67
e 40 68
e 40 74
e 40 76
e 40 78
e 40 81
e 40 82
e 40 84
e 40 86
e 40 89
e 40 90
e 40 92
e 40 95
e 40 100
e 41 42
e 41 45
e 41 47
e 41 49
e 41 50
e 41 53
e 41 58
e 41 60
e 41 61
e 41 62
e 41 64
e 41 65
e 41 66
e 41 67
e 41 70
e 41 72
e 41 73
e 41 74
e 41 75
e 41 76
e 41 77
e 41 79
e 41 80
e 41 81
e 41 82
e 41 84
e 41 85
e 41 89
e 41 91
e 41 95
e 41 97
e 41 99
e 42 43
e 42 45
e 42 46
e 42 49
e 42 50
e 42 52
e 42 55
e 42 57
e 42 58
e 42 59
e 42 60
e 42 64
e 42 66
e 42 67
e 42 68
e 42 69
e 42 70
e 42 72
e 42 73
e 42 75
e 42 76
e 42 77
e 42 83
e 42 84
e 42 86
e 42 89
e 42 91
e 42 92
e 42 100
e 43 44
e 43 47
e 43 48
e 43 51
e 43 52
e 43 53
e 43 56
e 43 57
e 43 62
e 43 63
e 43 64
e 43 65
e 43 68
e 43 69
e 43 71
e 43 75
e 43 76
e 43 79
e 43 80
e 43 82
e 43 83
e 43 84
e 43 85
e 43 87
e 43 88
e 43 90
e 43 93
e 43 94
e 43 95
e 43 96
e 43 97
e 43 98
e 44 45
e 44 47
e 44 50
e 44 52
e 44 54
e 44 55
e 44 57
e 44 58
e 44 60
e 44 61
e 44 62
e 44 65
e 44 66
e 44 68
e 44 70
e 44 75
e 44 76
e 44 77
e 44 78
e 44 80
e 44 82
e 44 83
e 44 84
e 44 86
e 44 88
e 44 93
e 44 95
e 45 46
e 45 47
e 45 48
e 45 49
e 45 50
e 45 51
e 45 52
e 45 55
e 45 60
e 45 61
e 45 62
e 45 63
e 45 64
e 45 70
e 45 72
e 45 74
e 45 79
e 45 83
e 45 88
e 45 95
e 45 98
e 45 100
e 46 51
e 46 53
e 46 54
e 46 56
e 46 58
e 46 59
e 46 60
e 46 61
e 46 64
e 46 66
e 46 67
e 46 69
e 46 74
e 46 75
e 46 79
e 46 84
e 46 85
e 46 86
e 46 89
e 46 92
e 46 93
e 46 97
e 46 98
e 46 100
e 47 48
e 47 49
e 47 54
e 47 55
e 47 64
e 47 67
e 47 69
e 47 71
e 47 73
e 47 75
e 47 77
e 47 79
e 47 81
e 47 85
e 47 90
e 47 93
e 47 96
e 47 98
e 48 49
e 48 50
e 48 52
e 48 55
e 48 56
e 48 57
e 48 60
e 48 61
e 48 63
e 48 65
e 48 68
e 48 70
e 48 72
e 48 74
e 48 77
e 48 80
e 48 85
e 48 87
e 48 88
e 48 89
e 48 90
e 48 94
e 48 96
e 48 99
e 49 50
e 49 52
e 49 58
e 49 59
e 49 60
e 49 64
e 49 65
e 49 66
e 49 70
e 49 71
e 49 72
e 49 77
e 49 79
e 49 81
e 49 82
e 49 88
e 49 89
e 49 90
e 49 91
e 50 51
e 50 54
e 50 56
e 50 59
e 50 61
e 50 64
e 50 65
e 50 67
e 50 69
e 50 70
e 50 71
e 50 74
e 50 76
e 50 77
e 50 82
e 50 85
e 50 86
e 50 88
e 50 89
e 50 92
e 50 96
e 50 98
e 50 99
e 51 52
e 51 53
e 51 57
e 51 58
e 51 60
e 51 63
e 51 66
e 51 67
e 51 70
e 51 71
e 51 75
e 51 76
e 51 80
e 51 81
e 51 85
e 51 87
e 51 89
e 51 92
e 51 95
e 51 97
e 51 98
e 52 58
e 52 59
e 52 60
e 52 61
e 52 62
e 52 63
e 52 66
e 52 69
e 52 70
e 52 72
e 52 73
e 52 74
e 52 78
e 52 80
e 52 81
e 52 84
e 52 85
e 52 86
e 52 87
e 52 89
e 52 92
e 52 94
e 52 99
e 53 55
e 53 56
e 53 59
e 53 62
e 53 64
e 53 66
e 53 67
e 53 68
e 53 69
e 53 71
e 53 73
e 53 74
e 53 75
e 53 76
e 53 77
e 53 79
e 53 80
e 53 83
e 53 92
e 53 96
e 53 99
e 53 100
e 54 55
e 54 56
e 54 57
e 54 60
e 54 62
e 54 63
e 54 65
e 54 68
e 54 72
e 54 74
e 54 78
e 54 79
e 54 80
e 54 81
e 54 83
e 54 87
e 54 89
e 54 91
e 54 92
e 54 93
e 54 96
e 54 100
e 55 58
e 55 60
e 55 62
e 55 63
e 55 65
e 55 67
e 55 71
e 55 73
e 55 77
e 55 79
e 55 80
e 55 81
e 55 83
e 55 84
e 55 85
e 55 86
e 55 88
e 55 89
e 55 91
e 55 92
e 55 93
e 55 96
e 55 98
e 55 100
e 56 58
e 56 59
e 56 61
e 56 62
e 56 63
e 56 68
e 56 71
e 56 74
e 56 75
e 56 76
e 56 81
e 56 85
e 56 86
e 56 89
e 56 93
e 56 94
e 56 99
e 57 58
e 57 59
e 57 60
e 57 61
e 57 63
e 57 64
e 57 65
e 57 68
e 57 70
e 57 71
e 57 72
e 57 73
e 57 74
e 57 78
e 57 80
e 57 84
e 57 85
e 57 91
e 57 92
e 57 93
e 57 94
e 57 95
e 57 97
e 58 60
e 58 61
e 58 62
e 58 63
e 58 65
e 58 70
e 58 72
e 58 76
e 58 78
e 58 81
e 58 83
e 58 84
e 58 85
e 58 89
e 58 92
e 58 93
e 58 94
e 58 96
e 58 98
e 59 60
e 59 61
e 59 67
e 59 68
e 59 72
e 59 73
e 59 75
e 59 76
e 59 78
e 59 79
e 59 80
e 59 82
e 59 87
e 59 89
e 59 91
e 59 93
e 59 94
e 59 95
e 59 99
e 59 100
e 60 62
e 60 63
e 60 66
e 60 69
e 60 70
e 60 71
e 60 72
e 60 76
e 60 77
e 60 78
e 60 79
e 60 81
e 60 83
e 60 90
e 60 92
e 60 100
e 61 62
e 61 63
e 61 65
e 61 67
e 61 68
e 61 69
e 61 76
e 61 77
e 61 78
e 61 81
e 61 83
e 61 86
e 61 88
e 61 90
e 61 92
e 61 96
e 61 97
e 61 98
e 62 63
e 62 65
e 62 67
e 62 71
e 62 74
e 62 81
e 62 83
e 62 86
e 62 87
e 62 88
e 62 89
e 62 90
e 62 95
e 62 96
e 62 97
e 62 98
e 62 99
e 62 100
e 63 68
e 63 69
e 63 70
e 63 76
e 63 78
e 63 79
e 63 82
e 63 83
e 63 84
e 63 87
e 63 89
e 63 93
e 63 96
e 63 99
e 64 65
e 64 66
e 64 67
e 64 68
e 64 69
e 64 70
e 64 71
e 64 73
e 64 74
e 64 78
e 64 80
e 64 81
e 64 82
e 64 84
e 64 87
e 64 88
e 64 90
e 64 93
e 64 94
e 64 95
e 65 66
e 65 68
e 65 69
e 65 71
e 65 72
e 65 73
e 65 77
e 65 80
e 65 88
e 65 95
e 65 97
e 65 98
e 66 68
e 66 71
e 66 72
e 66 73
e 66 74
e 66 75
e 66 77
e 66 78
e 66 80
e 66 82
e 66 86
e 66 90
e 66 91
e 66 92
e 66 98
e 67 74
e 67 75
e 67 78
e 67 79
e 67 81
e 67 82
e 67 83
e 67 86
e 67 88
e 67 92
e 67 94
e 67 98
e 67 100
e 68 70
e 68 71
e 68 75
e 68 77
e 68 79
e 68 80
e 68 84
e 68 85
e 68 86
e 68 88
e 68 94
e 68 97
e 68 98
e 69 75
e 69 76
e 69 82
e 69 83
e 69 85
e 69 86
e 69 87
e 69 89
e 69 95
e 69 96
e 69 97
e 69 98
e 70 71
e 70 75
e 70 82
e 70 83
e 70 85
e 70 86
e 70 90
e 70 91
e 70 92
e 70 94
e 70 97
e 70 99
e 70 100
e 71 74
e 71 75
e 71 77
e 71 79
e 71 82
e 71 85
e 71 87
e 71 91
e 71 96
e 71 97
e 71 98
e 71 100
e 72 73
e 72 77
e 72 80
e 72 82
e 72 83
e 72 85
e 72 87
e 72 88
e 72 89
e 72 91
e 72 92
e 72 99
e 73 74
e 73 75
e 73 76
e 73 77
e 73 79
e 73 80
e 73 85
e 73 86
e 73 87
e 73 88
e 73 90
e 73 92
e 73 95
e 73 96
e 73 98
e 74 75
e 74 76
e 74 78
e 74 80
e 74 82
e 74 85
e 74 87
e 74 88
e 74 89
e 74 90
e 74 97
e 74 98
e 74 100
e 75 78
e 75 81
e 75 82
e 75 83
e 75 86
e 75 87
e 75 89
e 75 91
e 76 78
e 76 79
e 76 81
e 76 83
e 76 87
e 76 91
e 76 97
e 76 98
e 76 100
e 77 81
e 77 82
e 77 84
e 77 87
e 77 88
e 77 89
e 77 90
e 77 95
e 77 97
e 77 99
e 78 80
e 78 83
e 78 85
e 78 86
e 78 87
e 78 90
e 78 93
e 78 95
e 78 99
e 79 81
e 79 84
e 79 85
e 79 88
e 79 90
e 79 91
e 79 92
e 79 94
e 79 95
e 79 96
e 79 97
e 80 81
e 80 86
e 80 87
e 80 88
e 80 89
e 80 93
e 80 94
e 81 83
e 81 84
e 81 87
e 81 92
e 81 93
e 81 96
e 82 89
e 82 90
e 82 92
e 82 95
e 82 98
e 82 100
e 83 90
e 83 92
e 83 93
e 83 95
e 83 96
e 83 98
e 84 85
e 84 86
e 84 87
e 84 91
e 84 96
e 85 88
e 85 89
e 85 90
e 85 91
e 85 94
e 85 95
e 85 100
e 86 87
e 86 88
e 86 90
e 86 92
e 86 96
e 86 97
e 87 89
e 87 90
e 87 92
e 87 93
e 87 98
e 88 92
e 88 94
e 88 95
e 89 91
e 89 93
e 89 94
e 89 95
e 89 99
e 89 100
e 90 93
e 90 95
e 90 99
e 91 92
e 91 93
e 91 95
e 91 96
e 91 98
e 92 95
e 93 94
e 93 95
e 93 96
e 93 97
e 94 95
e 94 97
e 95 99
e 97 98
e 97 99
e 98 100
e 99 100
n 13 3
n 20 3
n 29 3
n 35 2
n 37 3
n 41 3
n 44 3
n 51 1
n 64 3
n 65 3
n 68 3
n 69 3
n 72 3
n 73 3
n 74 3
n 79 3
n 88 3
n 93 3
n 99 3
n 100 3
